<number of tasks>
50

<cycle time>
1000

<order strength>
0.605


<task times>
1 265
2 401
3 331
4 539
5 397
6 221
7 314
8 54
9 284
10 274
11 45
12 150
13 38
14 30
15 21
16 195
17 155
18 506
19 76
20 262
21 231
22 222
23 107
24 355
25 115
26 21
27 57
28 88
29 275
30 274
31 183
32 243
33 131
34 85
35 446
36 114
37 256
38 249
39 108
40 257
41 198
42 184
43 174
44 494
45 529
46 260
47 89
48 368
49 489
50 109

<precedence relations>
1,7
2,5
2,8
3,6
3,8
4,8
5,11
6,12
7,10
8,9
8,13
8,14
8,15
9,16
10,17
11,18
12,19
13,18
13,19
14,18
14,19
15,18
15,19
16,22
17,20
18,21
18,22
19,21
19,22
20,24
21,23
21,24
21,25
21,26
21,27
22,24
22,25
22,26
22,27
23,28
24,29
24,36
24,48
25,30
25,31
26,30
26,31
27,30
28,32
29,33
30,34
30,35
30,36
31,34
31,35
32,38
33,39
34,37
34,40
34,41
34,42
35,40
35,41
35,42
36,42
36,46
36,47
37,43
38,45
39,46
40,44
40,47
41,45
41,46
41,47
41,48
42,45
43,50
44,49

<end>
